# Solution for model iteration_30
# Objective value = 2133.50383184049
0 0
1 5.1468394622104347e+02
4 1.0907911075576703e+04
5 1.1138892256544016e+03
6 5.0866648394190258e+02
7 6.1691107557670273e+02
9 0
14 4.8424270528291913e+02
15 9.0791107557670273e+02
16 5.6171667955114344e+02
23 6.3198773792563975e+02
24 468.505420076983
c(ee1ea6ff-4de4-486e-8d7a-67a0579594ec,39b6d253-aa2e-4247-82f8-e157083778e9)_rl 3.4835236647093240e+01
c(ee1ea6ff-4de4-486e-8d7a-67a0579594ec,39b6d253-aa2e-4247-82f8-e157083778e9)_ru 0
c(97980b23-712c-4f01-96a3-683282cec3ed,39b6d253-aa2e-4247-82f8-e157083778e9)_rl 31.814480704727
c(97980b23-712c-4f01-96a3-683282cec3ed,39b6d253-aa2e-4247-82f8-e157083778e9)_ru 0
c(d06531c2-d62a-4903-9183-987ce10a6c75,464ed566-2c66-4441-9179-1e8d032e0196)_rl 1.0483102612997169e+02
c(d06531c2-d62a-4903-9183-987ce10a6c75,464ed566-2c66-4441-9179-1e8d032e0196)_ru 0
c(f0215795-2e7b-478a-a323-abbf4238b9c1,39b6d253-aa2e-4247-82f8-e157083778e9)_rl 0
c(f0215795-2e7b-478a-a323-abbf4238b9c1,39b6d253-aa2e-4247-82f8-e157083778e9)_ru 3.5020201514933390e+01
c(e52ed47f-1822-468f-beb6-92e705c5b80f,592b8786-bda0-4a50-9cc5-ad0e58eb0d44)_rl 1.2845304641652203e+03
c(e52ed47f-1822-468f-beb6-92e705c5b80f,592b8786-bda0-4a50-9cc5-ad0e58eb0d44)_ru 0
c(66c73dfd-3bf2-4b0b-a504-d9f14b71f6af,8ecfb978-edd4-4825-b7da-fd8bc8836c8d)_rl 1.4033838840396862e+02
c(66c73dfd-3bf2-4b0b-a504-d9f14b71f6af,8ecfb978-edd4-4825-b7da-fd8bc8836c8d)_ru 0
c(b7d8d9d7-ab72-4c9e-88a5-c677918d75b1,39b6d253-aa2e-4247-82f8-e157083778e9)_rl 3.0618727731736058e+01
c(b7d8d9d7-ab72-4c9e-88a5-c677918d75b1,39b6d253-aa2e-4247-82f8-e157083778e9)_ru 0
c(9b671984-58a9-4850-b4a8-9adc4e6ee3eb,48bbd4ec-cccb-4c88-9f2a-61685fd0d208)_rl 0
c(9b671984-58a9-4850-b4a8-9adc4e6ee3eb,48bbd4ec-cccb-4c88-9f2a-61685fd0d208)_ru 3.2641199231219332e+02
c(6f60b030-39db-44b0-90c2-614ad4d0ca05,bef00eed-7111-4da2-a9f8-4297beb40ff7)_rl 0
c(6f60b030-39db-44b0-90c2-614ad4d0ca05,bef00eed-7111-4da2-a9f8-4297beb40ff7)_ru 2.7284058593867336e+01
c(b0f99918-c01b-4fca-b7db-73d585107fdc,39b6d253-aa2e-4247-82f8-e157083778e9)_rl 0
c(b0f99918-c01b-4fca-b7db-73d585107fdc,39b6d253-aa2e-4247-82f8-e157083778e9)_ru 0
c(b88699eb-2b7d-49d5-ab6b-38eced322e51,39b6d253-aa2e-4247-82f8-e157083778e9)_rl 3.0191296421732677e+01
c(b88699eb-2b7d-49d5-ab6b-38eced322e51,39b6d253-aa2e-4247-82f8-e157083778e9)_ru 0
c(39b6d253-aa2e-4247-82f8-e157083778e9,e1c1e4f0-89a7-4319-8573-6b0b50663062)_rl 0
c(39b6d253-aa2e-4247-82f8-e157083778e9,e1c1e4f0-89a7-4319-8573-6b0b50663062)_ru 0
c(f335e87e-d158-4c98-99db-a19c682b4475,830c4736-bd2b-4005-98f5-d47cfa5fa749)_rl 2.0630199306090169e+01
c(f335e87e-d158-4c98-99db-a19c682b4475,830c4736-bd2b-4005-98f5-d47cfa5fa749)_ru 0
c(4503378f-059a-457e-bb93-3b27b02b6624,b0f99918-c01b-4fca-b7db-73d585107fdc)_rl 0
c(4503378f-059a-457e-bb93-3b27b02b6624,b0f99918-c01b-4fca-b7db-73d585107fdc)_ru 0
c(9269351c-682f-45ec-90f8-148862e9dd82,4d9c7c74-ee92-44c6-86d0-84107827541f)_rl 3.6430301726514827e+01
c(9269351c-682f-45ec-90f8-148862e9dd82,4d9c7c74-ee92-44c6-86d0-84107827541f)_ru 0
c(1a3a36c7-a000-4e50-87ed-8a21ded3e5f0,435450e8-1d68-44f3-9ed0-bce054a18ab2)_rl 0
c(1a3a36c7-a000-4e50-87ed-8a21ded3e5f0,435450e8-1d68-44f3-9ed0-bce054a18ab2)_ru 0
c(b9e325bf-f0e5-43f6-80f7-cff0ff21ae9b,39b6d253-aa2e-4247-82f8-e157083778e9)_rl 0
c(b9e325bf-f0e5-43f6-80f7-cff0ff21ae9b,39b6d253-aa2e-4247-82f8-e157083778e9)_ru 3.0567458182441467e+01
lambda[0] 8.7492451445501385e-01
lambda[1] 0
lambda[2] 0
lambda[3] 0
lambda[4] 0
lambda[5] 0
lambda[6] 0
lambda[7] 0
lambda[8] 0
lambda[9] 0
lambda[10] 0
lambda[11] 0
lambda[12] 0
lambda[13] 0
lambda[14] 0
lambda[15] 0
lambda[16] 0
lambda[17] 0
lambda[18] 0
lambda[19] 0
lambda[20] 0
lambda[21] 0
lambda[22] 0
lambda[23] 0
lambda[24] 0
lambda[25] 0
lambda[26] 0
lambda[27] 0
lambda[28] 0
lambda[29] 1.2507548554498621e-01
phi[0] 2.2314355131420971e-01
